NAME          
ROWS
 N  OBJ
 L  c1
 L  c2
 L  c3
COLUMNS
    MARKER    'MARKER'                 'INTORG'
    x[1]      c1        991
    x[1]      c2        994
    x[1]      c3        65
    x[1]      OBJ       -351
    x[2]      c1        299
    x[2]      c2        753
    x[2]      c3        716
    x[2]      OBJ       -205
    x[3]      c1        250
    x[3]      c2        465
    x[3]      c3        59
    x[3]      OBJ       -819
    x[4]      c1        612
    x[4]      c2        317
    x[4]      c3        625
    x[4]      OBJ       -367
    x[5]      c1        487
    x[5]      c2        589
    x[5]      c3        690
    x[5]      OBJ       -611
    x[6]      c1        292
    x[6]      c2        289
    x[6]      c3        329
    x[6]      OBJ       -971
    x[7]      c1        694
    x[7]      c2        756
    x[7]      c3        842
    x[7]      OBJ       -417
    x[8]      c1        616
    x[8]      c2        618
    x[8]      c3        676
    x[8]      OBJ       -915
    x[9]      c1        294
    x[9]      c2        349
    x[9]      c3        310
    x[9]      OBJ       -714
    x[10]     c1        86
    x[10]     c2        290
    x[10]     c3        274
    x[10]     OBJ       -97
    x[11]     c1        126
    x[11]     c2        478
    x[11]     c3        391
    x[11]     OBJ       -841
    x[12]     c1        278
    x[12]     c2        597
    x[12]     c3        936
    x[12]     OBJ       -788
    x[13]     c1        392
    x[13]     c2        628
    x[13]     c3        503
    x[13]     OBJ       -807
    x[14]     c1        621
    x[14]     c2        44
    x[14]     c3        247
    x[14]     OBJ       -58
    x[15]     c1        162
    x[15]     c2        537
    x[15]     c3        597
    x[15]     OBJ       -903
    x[16]     c1        894
    x[16]     c2        333
    x[16]     c3        952
    x[16]     OBJ       -479
    x[17]     c1        633
    x[17]     c2        262
    x[17]     c3        523
    x[17]     OBJ       -474
    x[18]     c1        704
    x[18]     c2        208
    x[18]     c3        583
    x[18]     OBJ       -860
    x[19]     c1        298
    x[19]     c2        843
    x[19]     c3        803
    x[19]     OBJ       -168
    x[20]     c1        146
    x[20]     c2        55
    x[20]     c3        322
    x[20]     OBJ       -792
RHS
    rhs       c1        4438
    rhs       c2        4702
    rhs       c3        5222
RANGES
BOUNDS
 BV bounds    x[1]
 BV bounds    x[2]
 BV bounds    x[3]
 BV bounds    x[4]
 BV bounds    x[5]
 BV bounds    x[6]
 BV bounds    x[7]
 BV bounds    x[8]
 BV bounds    x[9]
 BV bounds    x[10]
 BV bounds    x[11]
 BV bounds    x[12]
 BV bounds    x[13]
 BV bounds    x[14]
 BV bounds    x[15]
 BV bounds    x[16]
 BV bounds    x[17]
 BV bounds    x[18]
 BV bounds    x[19]
 BV bounds    x[20]
ENDATA
